135 136 139 140 141 151 150 149 152 148 147 142 143 144 145 146 153 157 158 159 156 155 154 165 203 204 202 201 200 199 198 205 206 207 208 209 194 195 196 197 184 183 185 186 188 187 182 179 181 180 178 177 176 175 171 170 169 168 167 166 164 163 162 160 161 111 110 172 174 173 108 109 107 542 541 543 544 547 546 545 548 549 560 561 562 563 564 565 566 567 475 476 477 478 479 480 481 482 483 537 539 540 538 536 484 485 486 487 535 534 488 533 532 489 531 530 529 528 527 526 525 492 491 490 493 524 494 495 471 472 473 474 570 569 568 20 19 18 17 8 7 6 5 0 573 572 571 468 469 470 465 464 467 466 460 459 463 462 461 452 453 499 500 501 451 450 441 440 439 443 444 445 442 449 448 446 447 381 380 379 378 377 376 375 374 315 314 316 313 312 311 310 309 308 505 307 305 318 317 321 320 319 306 304 303 301 302 508 507 506 504 503 502 498 497 496 519 518 520 521 523 522 517 516 515 514 513 512 511 510 509 237 236 235 234 232 233 231 230 229 228 227 189 225 226 190 191 192 193 219 218 220 221 222 224 223 210 211 212 213 214 215 217 216 246 247 245 244 243 239 238 240 242 241 248 249 250 251 252 254 253 255 256 257 300 299 262 258 259 260 261 263 264 265 266 298 297 296 295 294 293 270 267 271 268 269 272 273 274 275 292 291 290 289 288 276 277 278 279 282 281 280 287 286 285 284 283 334 335 336 337 338 339 333 332 331 330 340 341 343 344 345 346 364 363 362 347 348 350 349 361 360 359 358 357 355 354 353 352 351 415 416 414 413 417 419 418 410 411 412 356 402 401 403 400 404 405 406 408 407 399 397 398 370 369 368 365 342 366 367 327 328 329 326 325 324 323 322 373 372 371 396 395 394 393 391 392 390 389 388 387 385 409 384 383 386 382 425 424 422 420 421 423 426 427 428 429 431 430 432 433 434 435 436 437 438 454 455 456 457 458 1 4 2 3 9 10 11 16 15 14 13 12 23 22 21 24 25 26 27 28 29 31 30 32 36 37 38 33 34 35 40 41 39 42 43 44 47 48 49 50 84 51 52 54 53 55 56 83 82 57 58 59 60 61 63 64 76 77 88 78 62 79 80 81 87 86 85 90 89 95 96 98 97 94 93 92 91 46 45 555 554 556 557 558 559 550 551 552 553 99 100 101 102 103 104 105 106 118 119 120 121 117 122 123 71 72 73 74 75 65 66 67 68 70 69 124 138 137 130 129 128 127 125 126 116 115 114 112 113 131 132 133 134